p cnf 400 1
400 0
w 1 0.070706
w 2 1 0
w 2 -1 1
w 3 2 1
w 3 -2 0
w 4 3 0.694656
w 4 -3 0.943139
w 5 4 1
w 5 -4 0
w 6 5 1
w 6 -5 0
w 7 6 0.936728
w 7 -6 0.126131
w 8 7 0.194848
w 8 -7 0.0512011
w 9 8 0
w 9 -8 1
w 10 9 0.00418659
w 10 -9 0.0462327
w 11 10 1
w 11 -10 0
w 12 11 1
w 12 -11 0
w 13 12 0
w 13 -12 1
w 14 13 0.487072
w 14 -13 0.0743936
w 15 14 0
w 15 -14 1
w 16 15 0.48077
w 16 -15 0.847111
w 17 16 1
w 17 -16 0
w 18 17 1
w 18 -17 0
w 19 18 0.0714557
w 19 -18 0.98795
w 20 19 0.197587
w 20 -19 0.520612
w 21 1 0.248788
w 21 -1 0.761643
w 22 21 2 0.781659
w 22 21 -2 0.76583
w 22 -21 2 0.556727
w 22 -21 -2 0.837799
w 23 22 3 1
w 23 22 -3 0
w 23 -22 3 1
w 23 -22 -3 1
w 24 23 4 0.835042
w 24 23 -4 0.683466
w 24 -23 4 0.00120411
w 24 -23 -4 0.361121
w 25 24 5 1
w 25 24 -5 0
w 25 -24 5 0
w 25 -24 -5 1
w 26 25 6 0.29442
w 26 25 -6 0.204854
w 26 -25 6 0.768082
w 26 -25 -6 0.937424
w 27 26 7 1
w 27 26 -7 1
w 27 -26 7 0
w 27 -26 -7 0
w 28 27 8 1
w 28 27 -8 0
w 28 -27 8 0
w 28 -27 -8 0
w 29 28 9 0
w 29 28 -9 1
w 29 -28 9 1
w 29 -28 -9 1
w 30 29 10 0
w 30 29 -10 0
w 30 -29 10 0
w 30 -29 -10 1
w 31 30 11 0.138125
w 31 30 -11 0.10014
w 31 -30 11 0.0159586
w 31 -30 -11 0.918257
w 32 31 12 0
w 32 31 -12 1
w 32 -31 12 0
w 32 -31 -12 1
w 33 32 13 0.107261
w 33 32 -13 0.274483
w 33 -32 13 0.0253685
w 33 -32 -13 0.393031
w 34 33 14 0.841535
w 34 33 -14 0.235528
w 34 -33 14 0.978057
w 34 -33 -14 0.869662
w 35 34 15 0.0715374
w 35 34 -15 0.15671
w 35 -34 15 0.195092
w 35 -34 -15 0.735831
w 36 35 16 1
w 36 35 -16 1
w 36 -35 16 0
w 36 -35 -16 1
w 37 36 17 0.106556
w 37 36 -17 0.0846349
w 37 -36 17 0.695726
w 37 -36 -17 0.122515
w 38 37 18 1
w 38 37 -18 1
w 38 -37 18 0
w 38 -37 -18 1
w 39 38 19 0.529533
w 39 38 -19 0.241065
w 39 -38 19 0.689631
w 39 -38 -19 0.922565
w 40 39 20 0.531165
w 40 39 -20 0.158093
w 40 -39 20 0.926492
w 40 -39 -20 0.400827
w 41 21 0.998029
w 41 -21 0.557538
w 42 41 22 0
w 42 41 -22 1
w 42 -41 22 1
w 42 -41 -22 1
w 43 42 23 0.524921
w 43 42 -23 0.413036
w 43 -42 23 0.0778409
w 43 -42 -23 0.609556
w 44 43 24 0
w 44 43 -24 1
w 44 -43 24 1
w 44 -43 -24 1
w 45 44 25 0
w 45 44 -25 0
w 45 -44 25 1
w 45 -44 -25 1
w 46 45 26 0.65557
w 46 45 -26 0.0734186
w 46 -45 26 0.699764
w 46 -45 -26 0.186736
w 47 46 27 0
w 47 46 -27 0
w 47 -46 27 0
w 47 -46 -27 1
w 48 47 28 0
w 48 47 -28 1
w 48 -47 28 1
w 48 -47 -28 0
w 49 48 29 0.516096
w 49 48 -29 0.588632
w 49 -48 29 0.941516
w 49 -48 -29 0.125652
w 50 49 30 0.141871
w 50 49 -30 0.7381
w 50 -49 30 0.896444
w 50 -49 -30 0.685554
w 51 50 31 1
w 51 50 -31 1
w 51 -50 31 0
w 51 -50 -31 0
w 52 51 32 0.661288
w 52 51 -32 0.742037
w 52 -51 32 0.646912
w 52 -51 -32 0.848024
w 53 52 33 0.273168
w 53 52 -33 0.435587
w 53 -52 33 0.19814
w 53 -52 -33 0.897454
w 54 53 34 0.610902
w 54 53 -34 0.255599
w 54 -53 34 0.473078
w 54 -53 -34 0.602076
w 55 54 35 0
w 55 54 -35 0
w 55 -54 35 1
w 55 -54 -35 1
w 56 55 36 1
w 56 55 -36 1
w 56 -55 36 1
w 56 -55 -36 0
w 57 56 37 0
w 57 56 -37 0
w 57 -56 37 1
w 57 -56 -37 0
w 58 57 38 0.24866
w 58 57 -38 0.688706
w 58 -57 38 0.542085
w 58 -57 -38 0.895572
w 59 58 39 0.515634
w 59 58 -39 0.16874
w 59 -58 39 0.972317
w 59 -58 -39 0.713774
w 60 59 40 0
w 60 59 -40 1
w 60 -59 40 0
w 60 -59 -40 1
w 61 41 0.752988
w 61 -41 0.362835
w 62 61 42 0
w 62 61 -42 1
w 62 -61 42 1
w 62 -61 -42 0
w 63 62 43 0
w 63 62 -43 0
w 63 -62 43 1
w 63 -62 -43 0
w 64 63 44 0
w 64 63 -44 1
w 64 -63 44 0
w 64 -63 -44 0
w 65 64 45 0.61268
w 65 64 -45 0.545224
w 65 -64 45 0.0928997
w 65 -64 -45 0.78142
w 66 65 46 0.806673
w 66 65 -46 0.847614
w 66 -65 46 0.0705451
w 66 -65 -46 0.131349
w 67 66 47 0
w 67 66 -47 0
w 67 -66 47 1
w 67 -66 -47 0
w 68 67 48 1
w 68 67 -48 1
w 68 -67 48 0
w 68 -67 -48 1
w 69 68 49 0
w 69 68 -49 0
w 69 -68 49 0
w 69 -68 -49 1
w 70 69 50 0.797191
w 70 69 -50 0.274597
w 70 -69 50 0.55926
w 70 -69 -50 0.514299
w 71 70 51 0
w 71 70 -51 0
w 71 -70 51 1
w 71 -70 -51 0
w 72 71 52 0.345856
w 72 71 -52 0.0360988
w 72 -71 52 0.756013
w 72 -71 -52 0.416401
w 73 72 53 1
w 73 72 -53 0
w 73 -72 53 1
w 73 -72 -53 0
w 74 73 54 0.328572
w 74 73 -54 0.543022
w 74 -73 54 0.073055
w 74 -73 -54 0.720342
w 75 74 55 0.234862
w 75 74 -55 0.382781
w 75 -74 55 0.0172166
w 75 -74 -55 0.563605
w 76 75 56 0
w 76 75 -56 0
w 76 -75 56 0
w 76 -75 -56 1
w 77 76 57 0.895279
w 77 76 -57 0.237083
w 77 -76 57 0.00207343
w 77 -76 -57 0.723595
w 78 77 58 0
w 78 77 -58 1
w 78 -77 58 1
w 78 -77 -58 1
w 79 78 59 0
w 79 78 -59 1
w 79 -78 59 1
w 79 -78 -59 1
w 80 79 60 1
w 80 79 -60 0
w 80 -79 60 1
w 80 -79 -60 0
w 81 61 0.711007
w 81 -61 0.279287
w 82 81 62 0
w 82 81 -62 0
w 82 -81 62 1
w 82 -81 -62 0
w 83 82 63 1
w 83 82 -63 0
w 83 -82 63 0
w 83 -82 -63 0
w 84 83 64 0.0808552
w 84 83 -64 0.89595
w 84 -83 64 0.0736682
w 84 -83 -64 0.991328
w 85 84 65 0.576275
w 85 84 -65 0.657813
w 85 -84 65 0.451252
w 85 -84 -65 0.24633
w 86 85 66 0
w 86 85 -66 0
w 86 -85 66 0
w 86 -85 -66 1
w 87 86 67 0
w 87 86 -67 0
w 87 -86 67 0
w 87 -86 -67 1
w 88 87 68 0.637922
w 88 87 -68 0.111404
w 88 -87 68 0.588106
w 88 -87 -68 0.302811
w 89 88 69 0
w 89 88 -69 1
w 89 -88 69 0
w 89 -88 -69 0
w 90 89 70 0.358163
w 90 89 -70 0.95143
w 90 -89 70 0.648192
w 90 -89 -70 0.431831
w 91 90 71 0.613593
w 91 90 -71 0.0081058
w 91 -90 71 0.600571
w 91 -90 -71 0.0648449
w 92 91 72 0
w 92 91 -72 1
w 92 -91 72 0
w 92 -91 -72 0
w 93 92 73 0.762475
w 93 92 -73 0.211893
w 93 -92 73 0.402406
w 93 -92 -73 0.0730995
w 94 93 74 0.14762
w 94 93 -74 0.711022
w 94 -93 74 0.706477
w 94 -93 -74 0.735727
w 95 94 75 1
w 95 94 -75 0
w 95 -94 75 0
w 95 -94 -75 1
w 96 95 76 1
w 96 95 -76 0
w 96 -95 76 1
w 96 -95 -76 1
w 97 96 77 0
w 97 96 -77 0
w 97 -96 77 1
w 97 -96 -77 1
w 98 97 78 0.743142
w 98 97 -78 0.187568
w 98 -97 78 0.287307
w 98 -97 -78 0.282862
w 99 98 79 0
w 99 98 -79 0
w 99 -98 79 1
w 99 -98 -79 1
w 100 99 80 1
w 100 99 -80 1
w 100 -99 80 0
w 100 -99 -80 0
w 101 81 0.883708
w 101 -81 0.93732
w 102 101 82 0
w 102 101 -82 1
w 102 -101 82 1
w 102 -101 -82 1
w 103 102 83 0.78157
w 103 102 -83 0.547077
w 103 -102 83 0.977225
w 103 -102 -83 0.389316
w 104 103 84 1
w 104 103 -84 0
w 104 -103 84 0
w 104 -103 -84 0
w 105 104 85 0
w 105 104 -85 1
w 105 -104 85 0
w 105 -104 -85 1
w 106 105 86 1
w 106 105 -86 0
w 106 -105 86 1
w 106 -105 -86 1
w 107 106 87 1
w 107 106 -87 1
w 107 -106 87 1
w 107 -106 -87 0
w 108 107 88 0.882796
w 108 107 -88 0.256587
w 108 -107 88 0.445
w 108 -107 -88 0.801475
w 109 108 89 0.22657
w 109 108 -89 0.348553
w 109 -108 89 0.918753
w 109 -108 -89 0.615886
w 110 109 90 0.788833
w 110 109 -90 0.677795
w 110 -109 90 0.606654
w 110 -109 -90 0.402054
w 111 110 91 0.968481
w 111 110 -91 0.298137
w 111 -110 91 0.300795
w 111 -110 -91 0.38009
w 112 111 92 0.200772
w 112 111 -92 0.914581
w 112 -111 92 0.169645
w 112 -111 -92 0.774824
w 113 112 93 1
w 113 112 -93 0
w 113 -112 93 1
w 113 -112 -93 0
w 114 113 94 0.156689
w 114 113 -94 0.490098
w 114 -113 94 0.936435
w 114 -113 -94 0.601689
w 115 114 95 0
w 115 114 -95 0
w 115 -114 95 0
w 115 -114 -95 1
w 116 115 96 0
w 116 115 -96 0
w 116 -115 96 1
w 116 -115 -96 0
w 117 116 97 1
w 117 116 -97 1
w 117 -116 97 1
w 117 -116 -97 0
w 118 117 98 0.0420662
w 118 117 -98 0.144362
w 118 -117 98 0.325603
w 118 -117 -98 0.325041
w 119 118 99 0.0842781
w 119 118 -99 0.824146
w 119 -118 99 0.198283
w 119 -118 -99 0.764125
w 120 119 100 0.688382
w 120 119 -100 0.70056
w 120 -119 100 0.582525
w 120 -119 -100 0.979955
w 121 101 0.410784
w 121 -101 0.620082
w 122 121 102 1
w 122 121 -102 0
w 122 -121 102 1
w 122 -121 -102 1
w 123 122 103 0.948392
w 123 122 -103 0.0260815
w 123 -122 103 0.318652
w 123 -122 -103 0.234132
w 124 123 104 1
w 124 123 -104 0
w 124 -123 104 0
w 124 -123 -104 1
w 125 124 105 0
w 125 124 -105 1
w 125 -124 105 1
w 125 -124 -105 0
w 126 125 106 0.142475
w 126 125 -106 0.100873
w 126 -125 106 0.618226
w 126 -125 -106 0.830856
w 127 126 107 0.200751
w 127 126 -107 0.810811
w 127 -126 107 0.379956
w 127 -126 -107 0.611535
w 128 127 108 0
w 128 127 -108 1
w 128 -127 108 0
w 128 -127 -108 1
w 129 128 109 1
w 129 128 -109 1
w 129 -128 109 0
w 129 -128 -109 1
w 130 129 110 0.845504
w 130 129 -110 0.559282
w 130 -129 110 0.107358
w 130 -129 -110 0.772371
w 131 130 111 0
w 131 130 -111 1
w 131 -130 111 1
w 131 -130 -111 1
w 132 131 112 0
w 132 131 -112 0
w 132 -131 112 1
w 132 -131 -112 0
w 133 132 113 0
w 133 132 -113 1
w 133 -132 113 1
w 133 -132 -113 1
w 134 133 114 0.619796
w 134 133 -114 0.399047
w 134 -133 114 0.395099
w 134 -133 -114 0.843032
w 135 134 115 0
w 135 134 -115 1
w 135 -134 115 1
w 135 -134 -115 1
w 136 135 116 0.153355
w 136 135 -116 0.30995
w 136 -135 116 0.785278
w 136 -135 -116 0.925726
w 137 136 117 1
w 137 136 -117 0
w 137 -136 117 0
w 137 -136 -117 0
w 138 137 118 1
w 138 137 -118 1
w 138 -137 118 0
w 138 -137 -118 1
w 139 138 119 0.0385121
w 139 138 -119 0.149733
w 139 -138 119 0.764836
w 139 -138 -119 0.682363
w 140 139 120 1
w 140 139 -120 0
w 140 -139 120 0
w 140 -139 -120 0
w 141 121 1
w 141 -121 0
w 142 141 122 0.975852
w 142 141 -122 0.619751
w 142 -141 122 0.615856
w 142 -141 -122 0.653771
w 143 142 123 0.925806
w 143 142 -123 0.439049
w 143 -142 123 0.698833
w 143 -142 -123 0.283241
w 144 143 124 0.6494
w 144 143 -124 0.501407
w 144 -143 124 0.335502
w 144 -143 -124 0.961556
w 145 144 125 0
w 145 144 -125 0
w 145 -144 125 0
w 145 -144 -125 1
w 146 145 126 0
w 146 145 -126 0
w 146 -145 126 1
w 146 -145 -126 1
w 147 146 127 0.751895
w 147 146 -127 0.486409
w 147 -146 127 0.734901
w 147 -146 -127 0.0637956
w 148 147 128 0
w 148 147 -128 0
w 148 -147 128 1
w 148 -147 -128 0
w 149 148 129 0
w 149 148 -129 0
w 149 -148 129 0
w 149 -148 -129 1
w 150 149 130 0.677905
w 150 149 -130 0.82397
w 150 -149 130 0.766442
w 150 -149 -130 0.895599
w 151 150 131 1
w 151 150 -131 0
w 151 -150 131 1
w 151 -150 -131 0
w 152 151 132 1
w 152 151 -132 1
w 152 -151 132 0
w 152 -151 -132 1
w 153 152 133 0
w 153 152 -133 0
w 153 -152 133 0
w 153 -152 -133 1
w 154 153 134 0
w 154 153 -134 1
w 154 -153 134 0
w 154 -153 -134 0
w 155 154 135 0
w 155 154 -135 0
w 155 -154 135 1
w 155 -154 -135 0
w 156 155 136 0
w 156 155 -136 1
w 156 -155 136 0
w 156 -155 -136 1
w 157 156 137 1
w 157 156 -137 1
w 157 -156 137 1
w 157 -156 -137 0
w 158 157 138 0.140081
w 158 157 -138 0.363606
w 158 -157 138 0.621387
w 158 -157 -138 0.564497
w 159 158 139 0.894196
w 159 158 -139 0.740809
w 159 -158 139 0.0489138
w 159 -158 -139 0.901906
w 160 159 140 0.486368
w 160 159 -140 0.620369
w 160 -159 140 0.90457
w 160 -159 -140 0.891274
w 161 141 0.284877
w 161 -141 0.189438
w 162 161 142 0.82067
w 162 161 -142 0.664101
w 162 -161 142 0.964944
w 162 -161 -142 0.161349
w 163 162 143 0.163942
w 163 162 -143 0.26847
w 163 -162 143 0.864834
w 163 -162 -143 0.720253
w 164 163 144 0.858927
w 164 163 -144 0.743156
w 164 -163 144 0.765244
w 164 -163 -144 0.999008
w 165 164 145 1
w 165 164 -145 0
w 165 -164 145 0
w 165 -164 -145 1
w 166 165 146 1
w 166 165 -146 0
w 166 -165 146 0
w 166 -165 -146 0
w 167 166 147 0.1898
w 167 166 -147 0.496374
w 167 -166 147 0.506459
w 167 -166 -147 0.474678
w 168 167 148 0.0963753
w 168 167 -148 0.295348
w 168 -167 148 0.349913
w 168 -167 -148 0.0613195
w 169 168 149 0
w 169 168 -149 1
w 169 -168 149 1
w 169 -168 -149 0
w 170 169 150 0.603373
w 170 169 -150 0.890343
w 170 -169 150 0.688671
w 170 -169 -150 0.368617
w 171 170 151 0.795433
w 171 170 -151 0.755248
w 171 -170 151 0.452856
w 171 -170 -151 0.865251
w 172 171 152 0
w 172 171 -152 1
w 172 -171 152 1
w 172 -171 -152 0
w 173 172 153 0.0219115
w 173 172 -153 0.232201
w 173 -172 153 0.0854565
w 173 -172 -153 0.52837
w 174 173 154 0.771269
w 174 173 -154 0.624746
w 174 -173 154 0.00222667
w 174 -173 -154 0.121182
w 175 174 155 0.458924
w 175 174 -155 0.287763
w 175 -174 155 0.911327
w 175 -174 -155 0.18409
w 176 175 156 0
w 176 175 -156 1
w 176 -175 156 1
w 176 -175 -156 1
w 177 176 157 1
w 177 176 -157 1
w 177 -176 157 1
w 177 -176 -157 0
w 178 177 158 0.308899
w 178 177 -158 0.190178
w 178 -177 158 0.166212
w 178 -177 -158 0.3513
w 179 178 159 0.188123
w 179 178 -159 0.583501
w 179 -178 159 0.864717
w 179 -178 -159 0.716494
w 180 179 160 1
w 180 179 -160 1
w 180 -179 160 0
w 180 -179 -160 1
w 181 161 1
w 181 -161 0
w 182 181 162 0
w 182 181 -162 0
w 182 -181 162 1
w 182 -181 -162 1
w 183 182 163 0.57363
w 183 182 -163 0.340984
w 183 -182 163 0.879163
w 183 -182 -163 0.672502
w 184 183 164 0.790491
w 184 183 -164 0.22423
w 184 -183 164 0.888124
w 184 -183 -164 0.737894
w 185 184 165 0.0783019
w 185 184 -165 0.904106
w 185 -184 165 0.884429
w 185 -184 -165 0.857562
w 186 185 166 1
w 186 185 -166 0
w 186 -185 166 1
w 186 -185 -166 0
w 187 186 167 0
w 187 186 -167 0
w 187 -186 167 1
w 187 -186 -167 0
w 188 187 168 0.160361
w 188 187 -168 0.115898
w 188 -187 168 0.738066
w 188 -187 -168 0.52447
w 189 188 169 0.461149
w 189 188 -169 0.0980995
w 189 -188 169 0.252355
w 189 -188 -169 0.340312
w 190 189 170 0.934284
w 190 189 -170 0.130803
w 190 -189 170 0.994832
w 190 -189 -170 0.822408
w 191 190 171 0.527961
w 191 190 -171 0.90071
w 191 -190 171 0.772803
w 191 -190 -171 0.41239
w 192 191 172 0.865031
w 192 191 -172 0.88032
w 192 -191 172 0.48055
w 192 -191 -172 0.673754
w 193 192 173 0.838814
w 193 192 -173 0.823716
w 193 -192 173 0.689546
w 193 -192 -173 0.954245
w 194 193 174 0
w 194 193 -174 1
w 194 -193 174 1
w 194 -193 -174 0
w 195 194 175 0.0282506
w 195 194 -175 0.691207
w 195 -194 175 0.737175
w 195 -194 -175 0.280605
w 196 195 176 0
w 196 195 -176 1
w 196 -195 176 1
w 196 -195 -176 0
w 197 196 177 1
w 197 196 -177 0
w 197 -196 177 0
w 197 -196 -177 0
w 198 197 178 0
w 198 197 -178 0
w 198 -197 178 1
w 198 -197 -178 0
w 199 198 179 1
w 199 198 -179 1
w 199 -198 179 0
w 199 -198 -179 0
w 200 199 180 0.167306
w 200 199 -180 0.143448
w 200 -199 180 0.0844926
w 200 -199 -180 0.284186
w 201 181 1
w 201 -181 0
w 202 201 182 0
w 202 201 -182 1
w 202 -201 182 0
w 202 -201 -182 0
w 203 202 183 0.80793
w 203 202 -183 0.258553
w 203 -202 183 0.471129
w 203 -202 -183 0.845227
w 204 203 184 0
w 204 203 -184 0
w 204 -203 184 0
w 204 -203 -184 1
w 205 204 185 0
w 205 204 -185 1
w 205 -204 185 0
w 205 -204 -185 1
w 206 205 186 0
w 206 205 -186 1
w 206 -205 186 0
w 206 -205 -186 0
w 207 206 187 0
w 207 206 -187 1
w 207 -206 187 1
w 207 -206 -187 0
w 208 207 188 0
w 208 207 -188 0
w 208 -207 188 1
w 208 -207 -188 1
w 209 208 189 0.879192
w 209 208 -189 0.436076
w 209 -208 189 0.817756
w 209 -208 -189 0.350321
w 210 209 190 0
w 210 209 -190 0
w 210 -209 190 1
w 210 -209 -190 1
w 211 210 191 0.544047
w 211 210 -191 0.962966
w 211 -210 191 0.0646207
w 211 -210 -191 0.200385
w 212 211 192 1
w 212 211 -192 0
w 212 -211 192 0
w 212 -211 -192 1
w 213 212 193 0.777477
w 213 212 -193 0.200535
w 213 -212 193 0.240591
w 213 -212 -193 0.500144
w 214 213 194 0.690519
w 214 213 -194 0.535248
w 214 -213 194 0.0617686
w 214 -213 -194 0.60119
w 215 214 195 1
w 215 214 -195 0
w 215 -214 195 0
w 215 -214 -195 1
w 216 215 196 0.880773
w 216 215 -196 0.546055
w 216 -215 196 0.682722
w 216 -215 -196 0.945309
w 217 216 197 0.479402
w 217 216 -197 0.489356
w 217 -216 197 0.709741
w 217 -216 -197 0.544023
w 218 217 198 0.777561
w 218 217 -198 0.838495
w 218 -217 198 0.562106
w 218 -217 -198 0.116556
w 219 218 199 1
w 219 218 -199 1
w 219 -218 199 0
w 219 -218 -199 0
w 220 219 200 1
w 220 219 -200 0
w 220 -219 200 1
w 220 -219 -200 0
w 221 201 0.0928189
w 221 -201 0.496347
w 222 221 202 1
w 222 221 -202 1
w 222 -221 202 0
w 222 -221 -202 1
w 223 222 203 0
w 223 222 -203 1
w 223 -222 203 0
w 223 -222 -203 1
w 224 223 204 0
w 224 223 -204 1
w 224 -223 204 1
w 224 -223 -204 0
w 225 224 205 0
w 225 224 -205 0
w 225 -224 205 1
w 225 -224 -205 1
w 226 225 206 0.69345
w 226 225 -206 0.65284
w 226 -225 206 0.119971
w 226 -225 -206 0.507056
w 227 226 207 0.0493959
w 227 226 -207 0.382431
w 227 -226 207 0.268925
w 227 -226 -207 0.142215
w 228 227 208 0.357944
w 228 227 -208 0.834504
w 228 -227 208 0.813852
w 228 -227 -208 0.277665
w 229 228 209 0
w 229 228 -209 1
w 229 -228 209 0
w 229 -228 -209 0
w 230 229 210 0.46053
w 230 229 -210 0.587825
w 230 -229 210 0.631131
w 230 -229 -210 0.175736
w 231 230 211 1
w 231 230 -211 0
w 231 -230 211 0
w 231 -230 -211 0
w 232 231 212 0.224279
w 232 231 -212 0.879455
w 232 -231 212 0.853262
w 232 -231 -212 0.731335
w 233 232 213 0.902658
w 233 232 -213 0.113766
w 233 -232 213 0.808667
w 233 -232 -213 0.0448727
w 234 233 214 0.166611
w 234 233 -214 0.879376
w 234 -233 214 0.806395
w 234 -233 -214 0.444277
w 235 234 215 0
w 235 234 -215 1
w 235 -234 215 0
w 235 -234 -215 0
w 236 235 216 0
w 236 235 -216 0
w 236 -235 216 0
w 236 -235 -216 1
w 237 236 217 1
w 237 236 -217 0
w 237 -236 217 1
w 237 -236 -217 0
w 238 237 218 0.0013143
w 238 237 -218 0.681466
w 238 -237 218 0.774448
w 238 -237 -218 0.854576
w 239 238 219 1
w 239 238 -219 1
w 239 -238 219 1
w 239 -238 -219 0
w 240 239 220 0.519111
w 240 239 -220 0.289469
w 240 -239 220 0.681484
w 240 -239 -220 0.325506
w 241 221 0.968426
w 241 -221 0.426882
w 242 241 222 0
w 242 241 -222 1
w 242 -241 222 0
w 242 -241 -222 0
w 243 242 223 1
w 243 242 -223 0
w 243 -242 223 1
w 243 -242 -223 1
w 244 243 224 0.602185
w 244 243 -224 0.668891
w 244 -243 224 0.665797
w 244 -243 -224 0.283651
w 245 244 225 1
w 245 244 -225 0
w 245 -244 225 1
w 245 -244 -225 0
w 246 245 226 0
w 246 245 -226 1
w 246 -245 226 0
w 246 -245 -226 0
w 247 246 227 0.0676354
w 247 246 -227 0.903602
w 247 -246 227 0.729624
w 247 -246 -227 0.494518
w 248 247 228 0.910929
w 248 247 -228 0.54566
w 248 -247 228 0.306208
w 248 -247 -228 0.238776
w 249 248 229 0.52485
w 249 248 -229 0.344297
w 249 -248 229 0.078053
w 249 -248 -229 0.669848
w 250 249 230 0
w 250 249 -230 1
w 250 -249 230 0
w 250 -249 -230 0
w 251 250 231 0.230424
w 251 250 -231 0.928705
w 251 -250 231 0.252136
w 251 -250 -231 0.987953
w 252 251 232 0
w 252 251 -232 0
w 252 -251 232 1
w 252 -251 -232 0
w 253 252 233 1
w 253 252 -233 1
w 253 -252 233 0
w 253 -252 -233 0
w 254 253 234 0.903533
w 254 253 -234 0.687778
w 254 -253 234 0.325098
w 254 -253 -234 0.209741
w 255 254 235 0.00669145
w 255 254 -235 0.734591
w 255 -254 235 0.270851
w 255 -254 -235 0.0847445
w 256 255 236 1
w 256 255 -236 0
w 256 -255 236 1
w 256 -255 -236 0
w 257 256 237 0
w 257 256 -237 1
w 257 -256 237 0
w 257 -256 -237 1
w 258 257 238 0
w 258 257 -238 1
w 258 -257 238 0
w 258 -257 -238 0
w 259 258 239 0
w 259 258 -239 1
w 259 -258 239 1
w 259 -258 -239 0
w 260 259 240 1
w 260 259 -240 1
w 260 -259 240 1
w 260 -259 -240 0
w 261 241 1
w 261 -241 0
w 262 261 242 0.0907089
w 262 261 -242 0.365914
w 262 -261 242 0.657622
w 262 -261 -242 0.495148
w 263 262 243 0.484902
w 263 262 -243 0.17162
w 263 -262 243 0.931089
w 263 -262 -243 0.720514
w 264 263 244 1
w 264 263 -244 0
w 264 -263 244 1
w 264 -263 -244 1
w 265 264 245 0.995001
w 265 264 -245 0.912117
w 265 -264 245 0.0242489
w 265 -264 -245 0.296046
w 266 265 246 0.4859
w 266 265 -246 0.53889
w 266 -265 246 0.0967303
w 266 -265 -246 0.726989
w 267 266 247 0.265239
w 267 266 -247 0.293175
w 267 -266 247 0.0413848
w 267 -266 -247 0.360302
w 268 267 248 0.132094
w 268 267 -248 0.726216
w 268 -267 248 0.523676
w 268 -267 -248 0.627241
w 269 268 249 0
w 269 268 -249 1
w 269 -268 249 0
w 269 -268 -249 0
w 270 269 250 0
w 270 269 -250 1
w 270 -269 250 0
w 270 -269 -250 1
w 271 270 251 0.938225
w 271 270 -251 0.477061
w 271 -270 251 0.781501
w 271 -270 -251 0.962474
w 272 271 252 0.397501
w 272 271 -252 0.448375
w 272 -271 252 0.311997
w 272 -271 -252 0.494231
w 273 272 253 0
w 273 272 -253 0
w 273 -272 253 0
w 273 -272 -253 1
w 274 273 254 0
w 274 273 -254 1
w 274 -273 254 0
w 274 -273 -254 0
w 275 274 255 0
w 275 274 -255 1
w 275 -274 255 1
w 275 -274 -255 1
w 276 275 256 0.489336
w 276 275 -256 0.209861
w 276 -275 256 0.890192
w 276 -275 -256 0.971397
w 277 276 257 0
w 277 276 -257 0
w 277 -276 257 0
w 277 -276 -257 1
w 278 277 258 1
w 278 277 -258 0
w 278 -277 258 1
w 278 -277 -258 0
w 279 278 259 1
w 279 278 -259 0
w 279 -278 259 0
w 279 -278 -259 1
w 280 279 260 0.217761
w 280 279 -260 0.740218
w 280 -279 260 0.477709
w 280 -279 -260 0.0760294
w 281 261 0.804872
w 281 -261 0.942875
w 282 281 262 1
w 282 281 -262 0
w 282 -281 262 0
w 282 -281 -262 0
w 283 282 263 0.824724
w 283 282 -263 0.00503253
w 283 -282 263 0.827918
w 283 -282 -263 0.653141
w 284 283 264 0
w 284 283 -264 0
w 284 -283 264 0
w 284 -283 -264 1
w 285 284 265 0.208619
w 285 284 -265 0.699387
w 285 -284 265 0.0979292
w 285 -284 -265 0.739446
w 286 285 266 1
w 286 285 -266 1
w 286 -285 266 1
w 286 -285 -266 0
w 287 286 267 1
w 287 286 -267 1
w 287 -286 267 1
w 287 -286 -267 0
w 288 287 268 0
w 288 287 -268 1
w 288 -287 268 1
w 288 -287 -268 0
w 289 288 269 0.50525
w 289 288 -269 0.481644
w 289 -288 269 0.708603
w 289 -288 -269 0.333168
w 290 289 270 1
w 290 289 -270 1
w 290 -289 270 0
w 290 -289 -270 1
w 291 290 271 0
w 291 290 -271 0
w 291 -290 271 1
w 291 -290 -271 0
w 292 291 272 0.341144
w 292 291 -272 0.0941377
w 292 -291 272 0.722518
w 292 -291 -272 0.540004
w 293 292 273 0
w 293 292 -273 1
w 293 -292 273 1
w 293 -292 -273 1
w 294 293 274 0
w 294 293 -274 1
w 294 -293 274 0
w 294 -293 -274 0
w 295 294 275 0
w 295 294 -275 1
w 295 -294 275 1
w 295 -294 -275 0
w 296 295 276 0
w 296 295 -276 1
w 296 -295 276 1
w 296 -295 -276 1
w 297 296 277 0.296041
w 297 296 -277 0.286354
w 297 -296 277 0.927336
w 297 -296 -277 0.0812566
w 298 297 278 1
w 298 297 -278 1
w 298 -297 278 0
w 298 -297 -278 1
w 299 298 279 1
w 299 298 -279 1
w 299 -298 279 1
w 299 -298 -279 0
w 300 299 280 0.502298
w 300 299 -280 0.939385
w 300 -299 280 0.445269
w 300 -299 -280 0.612225
w 301 281 1
w 301 -281 0
w 302 301 282 0
w 302 301 -282 0
w 302 -301 282 0
w 302 -301 -282 1
w 303 302 283 1
w 303 302 -283 0
w 303 -302 283 1
w 303 -302 -283 0
w 304 303 284 0.729951
w 304 303 -284 0.773521
w 304 -303 284 0.0872893
w 304 -303 -284 0.998431
w 305 304 285 0.975625
w 305 304 -285 0.806916
w 305 -304 285 0.267587
w 305 -304 -285 0.907241
w 306 305 286 1
w 306 305 -286 0
w 306 -305 286 0
w 306 -305 -286 0
w 307 306 287 0.531598
w 307 306 -287 0.4314
w 307 -306 287 0.428966
w 307 -306 -287 0.271352
w 308 307 288 0.1618
w 308 307 -288 0.638759
w 308 -307 288 0.565347
w 308 -307 -288 0.307753
w 309 308 289 0.800671
w 309 308 -289 0.703977
w 309 -308 289 0.290768
w 309 -308 -289 0.603286
w 310 309 290 0
w 310 309 -290 0
w 310 -309 290 0
w 310 -309 -290 1
w 311 310 291 0
w 311 310 -291 0
w 311 -310 291 1
w 311 -310 -291 0
w 312 311 292 0.703143
w 312 311 -292 0.190169
w 312 -311 292 0.655206
w 312 -311 -292 0.522318
w 313 312 293 0
w 313 312 -293 1
w 313 -312 293 1
w 313 -312 -293 0
w 314 313 294 0.728094
w 314 313 -294 0.0969166
w 314 -313 294 0.15426
w 314 -313 -294 0.0358467
w 315 314 295 0.954931
w 315 314 -295 0.739824
w 315 -314 295 0.0433347
w 315 -314 -295 0.558216
w 316 315 296 1
w 316 315 -296 0
w 316 -315 296 0
w 316 -315 -296 0
w 317 316 297 0
w 317 316 -297 0
w 317 -316 297 1
w 317 -316 -297 1
w 318 317 298 0.513917
w 318 317 -298 0.202819
w 318 -317 298 0.585789
w 318 -317 -298 0.0362346
w 319 318 299 1
w 319 318 -299 0
w 319 -318 299 0
w 319 -318 -299 0
w 320 319 300 0.327667
w 320 319 -300 0.733125
w 320 -319 300 0.670381
w 320 -319 -300 0.0802344
w 321 301 0.410205
w 321 -301 0.123569
w 322 321 302 1
w 322 321 -302 1
w 322 -321 302 0
w 322 -321 -302 1
w 323 322 303 0.360845
w 323 322 -303 0.276607
w 323 -322 303 0.764501
w 323 -322 -303 0.72255
w 324 323 304 0
w 324 323 -304 0
w 324 -323 304 1
w 324 -323 -304 0
w 325 324 305 1
w 325 324 -305 0
w 325 -324 305 1
w 325 -324 -305 1
w 326 325 306 1
w 326 325 -306 0
w 326 -325 306 1
w 326 -325 -306 0
w 327 326 307 0.650167
w 327 326 -307 0.627529
w 327 -326 307 0.941676
w 327 -326 -307 0.773736
w 328 327 308 0.487946
w 328 327 -308 0.152879
w 328 -327 308 0.0115249
w 328 -327 -308 0.340046
w 329 328 309 1
w 329 328 -309 0
w 329 -328 309 1
w 329 -328 -309 1
w 330 329 310 0.628776
w 330 329 -310 0.748053
w 330 -329 310 0.30533
w 330 -329 -310 0.608746
w 331 330 311 0.942862
w 331 330 -311 0.928862
w 331 -330 311 0.998489
w 331 -330 -311 0.570345
w 332 331 312 0
w 332 331 -312 0
w 332 -331 312 0
w 332 -331 -312 1
w 333 332 313 0.54798
w 333 332 -313 0.460854
w 333 -332 313 0.343696
w 333 -332 -313 0.489656
w 334 333 314 0
w 334 333 -314 0
w 334 -333 314 0
w 334 -333 -314 1
w 335 334 315 1
w 335 334 -315 0
w 335 -334 315 1
w 335 -334 -315 0
w 336 335 316 0.638333
w 336 335 -316 0.954996
w 336 -335 316 0.444365
w 336 -335 -316 0.943664
w 337 336 317 0.431339
w 337 336 -317 0.886525
w 337 -336 317 0.492603
w 337 -336 -317 0.429828
w 338 337 318 1
w 338 337 -318 0
w 338 -337 318 0
w 338 -337 -318 1
w 339 338 319 0
w 339 338 -319 1
w 339 -338 319 0
w 339 -338 -319 1
w 340 339 320 0.176712
w 340 339 -320 0.510925
w 340 -339 320 0.679768
w 340 -339 -320 0.564182
w 341 321 0.997416
w 341 -321 0.0387757
w 342 341 322 0
w 342 341 -322 1
w 342 -341 322 0
w 342 -341 -322 0
w 343 342 323 0
w 343 342 -323 1
w 343 -342 323 1
w 343 -342 -323 1
w 344 343 324 1
w 344 343 -324 1
w 344 -343 324 1
w 344 -343 -324 0
w 345 344 325 0
w 345 344 -325 0
w 345 -344 325 0
w 345 -344 -325 1
w 346 345 326 1
w 346 345 -326 1
w 346 -345 326 1
w 346 -345 -326 0
w 347 346 327 1
w 347 346 -327 1
w 347 -346 327 1
w 347 -346 -327 0
w 348 347 328 0.212464
w 348 347 -328 0.58182
w 348 -347 328 0.963696
w 348 -347 -328 0.782513
w 349 348 329 0.445711
w 349 348 -329 0.296227
w 349 -348 329 0.785543
w 349 -348 -329 0.359066
w 350 349 330 0.161879
w 350 349 -330 0.702248
w 350 -349 330 0.553575
w 350 -349 -330 0.186237
w 351 350 331 0.644249
w 351 350 -331 0.875125
w 351 -350 331 0.211045
w 351 -350 -331 0.684656
w 352 351 332 0.648199
w 352 351 -332 0.0184911
w 352 -351 332 0.380086
w 352 -351 -332 0.262066
w 353 352 333 0.663417
w 353 352 -333 0.440115
w 353 -352 333 0.447959
w 353 -352 -333 0.944165
w 354 353 334 0.374005
w 354 353 -334 0.156628
w 354 -353 334 0.238759
w 354 -353 -334 0.337701
w 355 354 335 0.14057
w 355 354 -335 0.783412
w 355 -354 335 0.235368
w 355 -354 -335 0.926113
w 356 355 336 1
w 356 355 -336 1
w 356 -355 336 0
w 356 -355 -336 0
w 357 356 337 1
w 357 356 -337 0
w 357 -356 337 1
w 357 -356 -337 0
w 358 357 338 0.925876
w 358 357 -338 0.419982
w 358 -357 338 0.832804
w 358 -357 -338 0.305962
w 359 358 339 0.696055
w 359 358 -339 0.969379
w 359 -358 339 0.122164
w 359 -358 -339 0.144015
w 360 359 340 0.779104
w 360 359 -340 0.518019
w 360 -359 340 0.0701715
w 360 -359 -340 0.017863
w 361 341 0.00931304
w 361 -341 0.158433
w 362 361 342 0.244681
w 362 361 -342 0.0845461
w 362 -361 342 0.781609
w 362 -361 -342 0.176515
w 363 362 343 0
w 363 362 -343 1
w 363 -362 343 0
w 363 -362 -343 0
w 364 363 344 0.596122
w 364 363 -344 0.958856
w 364 -363 344 0.605892
w 364 -363 -344 0.521998
w 365 364 345 0
w 365 364 -345 1
w 365 -364 345 0
w 365 -364 -345 1
w 366 365 346 0.183051
w 366 365 -346 0.278766
w 366 -365 346 0.710881
w 366 -365 -346 0.962155
w 367 366 347 0.781053
w 367 366 -347 0.980017
w 367 -366 347 0.652505
w 367 -366 -347 0.790366
w 368 367 348 0
w 368 367 -348 0
w 368 -367 348 1
w 368 -367 -348 0
w 369 368 349 1
w 369 368 -349 0
w 369 -368 349 1
w 369 -368 -349 1
w 370 369 350 0.665065
w 370 369 -350 0.438424
w 370 -369 350 0.845511
w 370 -369 -350 0.270958
w 371 370 351 0.22435
w 371 370 -351 0.709654
w 371 -370 351 0.788381
w 371 -370 -351 0.285237
w 372 371 352 0.585719
w 372 371 -352 0.468288
w 372 -371 352 0.123171
w 372 -371 -352 0.296601
w 373 372 353 0
w 373 372 -353 1
w 373 -372 353 1
w 373 -372 -353 0
w 374 373 354 0.54891
w 374 373 -354 0.864098
w 374 -373 354 0.903067
w 374 -373 -354 0.771907
w 375 374 355 0.114629
w 375 374 -355 0.167442
w 375 -374 355 0.636926
w 375 -374 -355 0.988114
w 376 375 356 1
w 376 375 -356 0
w 376 -375 356 1
w 376 -375 -356 0
w 377 376 357 0.408591
w 377 376 -357 0.593442
w 377 -376 357 0.633791
w 377 -376 -357 0.196972
w 378 377 358 0.478196
w 378 377 -358 0.782691
w 378 -377 358 0.346967
w 378 -377 -358 0.601367
w 379 378 359 1
w 379 378 -359 0
w 379 -378 359 0
w 379 -378 -359 1
w 380 379 360 0
w 380 379 -360 1
w 380 -379 360 0
w 380 -379 -360 1
w 381 361 0.895228
w 381 -361 0.0426604
w 382 381 362 0.532155
w 382 381 -362 0.0307746
w 382 -381 362 0.685872
w 382 -381 -362 0.0557358
w 383 382 363 0.134041
w 383 382 -363 0.424828
w 383 -382 363 0.608091
w 383 -382 -363 0.542631
w 384 383 364 0
w 384 383 -364 1
w 384 -383 364 1
w 384 -383 -364 1
w 385 384 365 0.243918
w 385 384 -365 0.321446
w 385 -384 365 0.601585
w 385 -384 -365 0.0213271
w 386 385 366 0.758531
w 386 385 -366 0.209197
w 386 -385 366 0.936555
w 386 -385 -366 0.783495
w 387 386 367 0.894439
w 387 386 -367 0.711527
w 387 -386 367 0.454662
w 387 -386 -367 0.789668
w 388 387 368 0.13079
w 388 387 -368 0.321822
w 388 -387 368 0.784962
w 388 -387 -368 0.816662
w 389 388 369 0
w 389 388 -369 0
w 389 -388 369 0
w 389 -388 -369 1
w 390 389 370 1
w 390 389 -370 0
w 390 -389 370 0
w 390 -389 -370 0
w 391 390 371 1
w 391 390 -371 1
w 391 -390 371 0
w 391 -390 -371 1
w 392 391 372 0.203183
w 392 391 -372 0.115347
w 392 -391 372 0.192049
w 392 -391 -372 0.139738
w 393 392 373 0.138025
w 393 392 -373 0.0341773
w 393 -392 373 0.610369
w 393 -392 -373 0.592688
w 394 393 374 0.364556
w 394 393 -374 0.723478
w 394 -393 374 0.145667
w 394 -393 -374 0.149517
w 395 394 375 0.523225
w 395 394 -375 0.618433
w 395 -394 375 0.490843
w 395 -394 -375 0.325611
w 396 395 376 0.984177
w 396 395 -376 0.146269
w 396 -395 376 0.0143285
w 396 -395 -376 0.217114
w 397 396 377 0.0532958
w 397 396 -377 0.972345
w 397 -396 377 0.825402
w 397 -396 -377 0.413709
w 398 397 378 0
w 398 397 -378 0
w 398 -397 378 0
w 398 -397 -378 1
w 399 398 379 0
w 399 398 -379 1
w 399 -398 379 1
w 399 -398 -379 0
w 400 399 380 0.318274
w 400 399 -380 0.454493
w 400 -399 380 0.760319
w 400 -399 -380 0.467791